200
1000
208
208
207
206
204
202
198
197
197
197
197
196
196
196
195
194
192
191
190
189
189
189
186
185
183
181
181
180
179
178
177
177
175
172
169
169
165
165
164
163
163
161
161
160
160
159
157
155
155
154
153
152
151
151
150
147
147
146
146
145
145
144
144
143
142
142
141
141
140
139
136
135
135
132
132
131
130
130
129
128
128
128
128
126
123
123
122
121
121
121
119
118
117
117
114
114
111
110
110
109
108
108
107
106
106
103
103
98
98
97
97
94
94
93
92
90
90
89
89
88
88
88
86
86
84
83
83
83
81
79
77
76
76
76
76
73
72
71
71
69
69
68
67
66
66
66
66
66
64
63
63
62
62
61
59
57
53
52
52
48
48
46
46
46
45
43
43
42
41
41
38
35
34
33
33
32
31
30
29
29
28
28
25
24
23
20
19
19
18
18
18
18
17
16
16
14
14
14
13
13
